\ENCODING=ISO-8859-1
\Problem name: 

Minimize
 obj: 14.7 x0,1,0 + 0 x1,1,0
Subject To
 c1: x0,1,0  = 1
 c2: x0,0,0 + x0,1,0  = 1
 c3: x0,0,0 + x1,0,0  = 1
 c4: x0,1,0 - x1,0,0  = 0
 c5: x0,1,0 <= 4
 c6: 100000 x0,1,0 + w00 - w10 <= 99985.3
 c7: 1077 x0,1,0 - w00 <= 0
 c8: 19.11 x1,0,0 + w00 - w10 >= 0
Bounds
 0 <= x0,0,0 <= 1
 0 <= x0,1,0 <= 1
 0 <= x1,0,0 <= 1
 0 <= x1,1,0 <= 1
Generals
 x0,0,0  x0,1,0  x1,0,0  x1,1,0 
End
